Results/Experiment 1 Results/New Benchmark/RES_60/output_p1_0.00_p2_0.00_n_60_12.txt
solutions: 373248 nodes: 678154  modelTime: 106  solveTime: 1956  totalTime: 2067  modelSize: 7853  readTime: 5 matchingSize: 30
