Results/Experiment 2 Results/New Benchmark/output_p1_0.00_p2_0.00_n_60_12.lp
clingo version 5.4.0
Reading from tempSRTISolver.lp ...
Solving...
Answer: 1
matched(8,2) matched(6,3) matched(1,4) matched(7,5) matched(3,6) matched(5,7) matched(2,8) matched(12,10) matched(9,11) matched(10,12) matched(11,9) matched(20,14) matched(18,15) matched(13,16) matched(19,17) matched(15,18) matched(17,19) matched(14,20) matched(16,13) matched(21,22) matched(28,23) matched(27,24) matched(26,25) matched(25,26) matched(24,27) matched(23,28) matched(22,21) matched(32,30) matched(29,31) matched(30,32) matched(31,29) matched(33,34) matched(40,35) matched(39,36) matched(38,37) matched(37,38) matched(36,39) matched(35,40) matched(34,33) matched(47,42) matched(48,43) matched(41,44) matched(46,45) matched(45,46) matched(42,47) matched(43,48) matched(44,41) matched(51,50) matched(50,51) matched(49,52) matched(52,49) matched(53,54) matched(58,55) matched(59,56) matched(60,57) matched(55,58) matched(56,59) matched(57,60) matched(54,53) matched(4,1)
Optimization: 782
Answer: 2
matched(8,2) matched(6,3) matched(1,4) matched(7,5) matched(3,6) matched(5,7) matched(2,8) matched(12,10) matched(9,11) matched(10,12) matched(11,9) matched(20,14) matched(18,15) matched(13,16) matched(19,17) matched(15,18) matched(17,19) matched(14,20) matched(16,13) matched(21,22) matched(28,23) matched(27,24) matched(26,25) matched(25,26) matched(24,27) matched(23,28) matched(22,21) matched(32,30) matched(29,31) matched(30,32) matched(31,29) matched(33,34) matched(40,35) matched(39,36) matched(38,37) matched(37,38) matched(36,39) matched(35,40) matched(34,33) matched(47,42) matched(46,43) matched(41,44) matched(48,45) matched(43,46) matched(42,47) matched(45,48) matched(44,41) matched(51,50) matched(50,51) matched(49,52) matched(52,49) matched(53,54) matched(58,55) matched(59,56) matched(60,57) matched(55,58) matched(56,59) matched(57,60) matched(54,53) matched(4,1)
Optimization: 780
Answer: 3
matched(8,2) matched(6,3) matched(1,4) matched(7,5) matched(3,6) matched(5,7) matched(2,8) matched(12,10) matched(9,11) matched(10,12) matched(11,9) matched(20,14) matched(18,15) matched(13,16) matched(19,17) matched(15,18) matched(17,19) matched(14,20) matched(16,13) matched(21,22) matched(26,23) matched(27,24) matched(28,25) matched(23,26) matched(24,27) matched(25,28) matched(22,21) matched(32,30) matched(29,31) matched(30,32) matched(31,29) matched(33,34) matched(40,35) matched(39,36) matched(38,37) matched(37,38) matched(36,39) matched(35,40) matched(34,33) matched(47,42) matched(46,43) matched(41,44) matched(48,45) matched(43,46) matched(42,47) matched(45,48) matched(44,41) matched(51,50) matched(50,51) matched(49,52) matched(52,49) matched(53,54) matched(58,55) matched(59,56) matched(60,57) matched(55,58) matched(56,59) matched(57,60) matched(54,53) matched(4,1)
Optimization: 774
Answer: 4
matched(8,2) matched(6,3) matched(1,4) matched(7,5) matched(3,6) matched(5,7) matched(2,8) matched(11,10) matched(10,11) matched(9,12) matched(12,9) matched(13,14) matched(20,15) matched(19,16) matched(18,17) matched(17,18) matched(16,19) matched(15,20) matched(14,13) matched(21,22) matched(26,23) matched(27,24) matched(28,25) matched(23,26) matched(24,27) matched(25,28) matched(22,21) matched(31,30) matched(30,31) matched(29,32) matched(32,29) matched(33,34) matched(38,35) matched(39,36) matched(40,37) matched(35,38) matched(36,39) matched(37,40) matched(34,33) matched(47,42) matched(46,43) matched(41,44) matched(48,45) matched(43,46) matched(42,47) matched(45,48) matched(44,41) matched(51,50) matched(50,51) matched(49,52) matched(52,49) matched(53,54) matched(58,55) matched(59,56) matched(60,57) matched(55,58) matched(56,59) matched(57,60) matched(54,53) matched(4,1)
Optimization: 755
Answer: 5
matched(8,2) matched(6,3) matched(1,4) matched(7,5) matched(3,6) matched(5,7) matched(2,8) matched(11,10) matched(10,11) matched(9,12) matched(12,9) matched(19,14) matched(20,15) matched(13,16) matched(18,17) matched(17,18) matched(14,19) matched(15,20) matched(16,13) matched(21,22) matched(26,23) matched(27,24) matched(28,25) matched(23,26) matched(24,27) matched(25,28) matched(22,21) matched(31,30) matched(30,31) matched(29,32) matched(32,29) matched(33,34) matched(38,35) matched(39,36) matched(40,37) matched(35,38) matched(36,39) matched(37,40) matched(34,33) matched(47,42) matched(46,43) matched(41,44) matched(48,45) matched(43,46) matched(42,47) matched(45,48) matched(44,41) matched(51,50) matched(50,51) matched(49,52) matched(52,49) matched(53,54) matched(58,55) matched(59,56) matched(60,57) matched(55,58) matched(56,59) matched(57,60) matched(54,53) matched(4,1)
Optimization: 752
Answer: 6
matched(8,2) matched(6,3) matched(1,4) matched(7,5) matched(3,6) matched(5,7) matched(2,8) matched(11,10) matched(10,11) matched(9,12) matched(12,9) matched(19,14) matched(18,15) matched(13,16) matched(20,17) matched(15,18) matched(14,19) matched(17,20) matched(16,13) matched(21,22) matched(26,23) matched(27,24) matched(28,25) matched(23,26) matched(24,27) matched(25,28) matched(22,21) matched(31,30) matched(30,31) matched(29,32) matched(32,29) matched(40,34) matched(38,35) matched(33,36) matched(39,37) matched(35,38) matched(37,39) matched(34,40) matched(36,33) matched(47,42) matched(46,43) matched(41,44) matched(48,45) matched(43,46) matched(42,47) matched(45,48) matched(44,41) matched(51,50) matched(50,51) matched(49,52) matched(52,49) matched(53,54) matched(58,55) matched(59,56) matched(60,57) matched(55,58) matched(56,59) matched(57,60) matched(54,53) matched(4,1)
Optimization: 746
Answer: 7
matched(8,2) matched(6,3) matched(1,4) matched(7,5) matched(3,6) matched(5,7) matched(2,8) matched(11,10) matched(10,11) matched(9,12) matched(12,9) matched(19,14) matched(20,15) matched(13,16) matched(18,17) matched(17,18) matched(14,19) matched(15,20) matched(16,13) matched(21,22) matched(26,23) matched(27,24) matched(28,25) matched(23,26) matched(24,27) matched(25,28) matched(22,21) matched(31,30) matched(30,31) matched(29,32) matched(32,29) matched(40,34) matched(38,35) matched(33,36) matched(39,37) matched(35,38) matched(37,39) matched(34,40) matched(36,33) matched(47,42) matched(46,43) matched(41,44) matched(48,45) matched(43,46) matched(42,47) matched(45,48) matched(44,41) matched(51,50) matched(50,51) matched(49,52) matched(52,49) matched(53,54) matched(58,55) matched(59,56) matched(60,57) matched(55,58) matched(56,59) matched(57,60) matched(54,53) matched(4,1)
Optimization: 744
Answer: 8
matched(8,2) matched(6,3) matched(1,4) matched(7,5) matched(3,6) matched(5,7) matched(2,8) matched(11,10) matched(10,11) matched(9,12) matched(12,9) matched(19,14) matched(20,15) matched(13,16) matched(18,17) matched(17,18) matched(14,19) matched(15,20) matched(16,13) matched(27,22) matched(26,23) matched(21,24) matched(28,25) matched(23,26) matched(22,27) matched(25,28) matched(24,21) matched(31,30) matched(30,31) matched(29,32) matched(32,29) matched(33,34) matched(38,35) matched(39,36) matched(40,37) matched(35,38) matched(36,39) matched(37,40) matched(34,33) matched(47,42) matched(46,43) matched(41,44) matched(48,45) matched(43,46) matched(42,47) matched(45,48) matched(44,41) matched(51,50) matched(50,51) matched(49,52) matched(52,49) matched(53,54) matched(58,55) matched(59,56) matched(60,57) matched(55,58) matched(56,59) matched(57,60) matched(54,53) matched(4,1)
Optimization: 743
Answer: 9
matched(8,2) matched(6,3) matched(1,4) matched(7,5) matched(3,6) matched(5,7) matched(2,8) matched(11,10) matched(10,11) matched(9,12) matched(12,9) matched(18,14) matched(13,15) matched(20,16) matched(19,17) matched(14,18) matched(17,19) matched(16,20) matched(15,13) matched(26,22) matched(21,23) matched(28,24) matched(27,25) matched(22,26) matched(25,27) matched(24,28) matched(23,21) matched(31,30) matched(30,31) matched(29,32) matched(32,29) matched(33,34) matched(38,35) matched(39,36) matched(40,37) matched(35,38) matched(36,39) matched(37,40) matched(34,33) matched(46,42) matched(41,43) matched(48,44) matched(47,45) matched(42,46) matched(45,47) matched(44,48) matched(43,41) matched(51,50) matched(50,51) matched(49,52) matched(52,49) matched(53,54) matched(60,55) matched(59,56) matched(58,57) matched(57,58) matched(56,59) matched(55,60) matched(54,53) matched(4,1)
Optimization: 742
Answer: 10
matched(8,2) matched(6,3) matched(1,4) matched(7,5) matched(3,6) matched(5,7) matched(2,8) matched(11,10) matched(10,11) matched(9,12) matched(12,9) matched(19,14) matched(18,15) matched(13,16) matched(20,17) matched(15,18) matched(14,19) matched(17,20) matched(16,13) matched(27,22) matched(26,23) matched(21,24) matched(28,25) matched(23,26) matched(22,27) matched(25,28) matched(24,21) matched(31,30) matched(30,31) matched(29,32) matched(32,29) matched(33,34) matched(40,35) matched(39,36) matched(38,37) matched(37,38) matched(36,39) matched(35,40) matched(34,33) matched(48,42) matched(46,43) matched(41,44) matched(47,45) matched(43,46) matched(45,47) matched(42,48) matched(44,41) matched(51,50) matched(50,51) matched(49,52) matched(52,49) matched(53,54) matched(60,55) matched(59,56) matched(58,57) matched(57,58) matched(56,59) matched(55,60) matched(54,53) matched(4,1)
Optimization: 738
Answer: 11
matched(8,2) matched(6,3) matched(1,4) matched(7,5) matched(3,6) matched(5,7) matched(2,8) matched(11,10) matched(10,11) matched(9,12) matched(12,9) matched(19,14) matched(20,15) matched(13,16) matched(18,17) matched(17,18) matched(14,19) matched(15,20) matched(16,13) matched(27,22) matched(26,23) matched(21,24) matched(28,25) matched(23,26) matched(22,27) matched(25,28) matched(24,21) matched(31,30) matched(30,31) matched(29,32) matched(32,29) matched(33,34) matched(40,35) matched(39,36) matched(38,37) matched(37,38) matched(36,39) matched(35,40) matched(34,33) matched(48,42) matched(46,43) matched(41,44) matched(47,45) matched(43,46) matched(45,47) matched(42,48) matched(44,41) matched(51,50) matched(50,51) matched(49,52) matched(52,49) matched(53,54) matched(60,55) matched(59,56) matched(58,57) matched(57,58) matched(56,59) matched(55,60) matched(54,53) matched(4,1)
Optimization: 736
Answer: 12
matched(8,2) matched(6,3) matched(1,4) matched(7,5) matched(3,6) matched(5,7) matched(2,8) matched(11,10) matched(10,11) matched(9,12) matched(12,9) matched(19,14) matched(20,15) matched(13,16) matched(18,17) matched(17,18) matched(14,19) matched(15,20) matched(16,13) matched(21,22) matched(28,23) matched(27,24) matched(26,25) matched(25,26) matched(24,27) matched(23,28) matched(22,21) matched(31,30) matched(30,31) matched(29,32) matched(32,29) matched(33,34) matched(38,35) matched(39,36) matched(40,37) matched(35,38) matched(36,39) matched(37,40) matched(34,33) matched(46,42) matched(41,43) matched(48,44) matched(47,45) matched(42,46) matched(45,47) matched(44,48) matched(43,41) matched(51,50) matched(50,51) matched(49,52) matched(52,49) matched(53,54) matched(60,55) matched(59,56) matched(58,57) matched(57,58) matched(56,59) matched(55,60) matched(54,53) matched(4,1)
Optimization: 733
Answer: 13
matched(8,2) matched(6,3) matched(1,4) matched(7,5) matched(3,6) matched(5,7) matched(2,8) matched(11,10) matched(10,11) matched(9,12) matched(12,9) matched(19,14) matched(20,15) matched(13,16) matched(18,17) matched(17,18) matched(14,19) matched(15,20) matched(16,13) matched(26,22) matched(21,23) matched(28,24) matched(27,25) matched(22,26) matched(25,27) matched(24,28) matched(23,21) matched(31,30) matched(30,31) matched(29,32) matched(32,29) matched(33,34) matched(38,35) matched(39,36) matched(40,37) matched(35,38) matched(36,39) matched(37,40) matched(34,33) matched(46,42) matched(41,43) matched(48,44) matched(47,45) matched(42,46) matched(45,47) matched(44,48) matched(43,41) matched(51,50) matched(50,51) matched(49,52) matched(52,49) matched(53,54) matched(60,55) matched(59,56) matched(58,57) matched(57,58) matched(56,59) matched(55,60) matched(54,53) matched(4,1)
Optimization: 729
Answer: 14
matched(8,2) matched(6,3) matched(1,4) matched(7,5) matched(3,6) matched(5,7) matched(2,8) matched(11,10) matched(10,11) matched(9,12) matched(12,9) matched(13,14) matched(20,15) matched(19,16) matched(18,17) matched(17,18) matched(16,19) matched(15,20) matched(14,13) matched(27,22) matched(28,23) matched(21,24) matched(26,25) matched(25,26) matched(22,27) matched(23,28) matched(24,21) matched(31,30) matched(30,31) matched(29,32) matched(32,29) matched(33,34) matched(38,35) matched(39,36) matched(40,37) matched(35,38) matched(36,39) matched(37,40) matched(34,33) matched(46,42) matched(41,43) matched(48,44) matched(47,45) matched(42,46) matched(45,47) matched(44,48) matched(43,41) matched(51,50) matched(50,51) matched(49,52) matched(52,49) matched(53,54) matched(60,55) matched(59,56) matched(58,57) matched(57,58) matched(56,59) matched(55,60) matched(54,53) matched(4,1)
Optimization: 727
Answer: 15
matched(8,2) matched(6,3) matched(1,4) matched(7,5) matched(3,6) matched(5,7) matched(2,8) matched(11,10) matched(10,11) matched(9,12) matched(12,9) matched(19,14) matched(20,15) matched(13,16) matched(18,17) matched(17,18) matched(14,19) matched(15,20) matched(16,13) matched(27,22) matched(28,23) matched(21,24) matched(26,25) matched(25,26) matched(22,27) matched(23,28) matched(24,21) matched(31,30) matched(30,31) matched(29,32) matched(32,29) matched(33,34) matched(38,35) matched(39,36) matched(40,37) matched(35,38) matched(36,39) matched(37,40) matched(34,33) matched(46,42) matched(41,43) matched(48,44) matched(47,45) matched(42,46) matched(45,47) matched(44,48) matched(43,41) matched(51,50) matched(50,51) matched(49,52) matched(52,49) matched(53,54) matched(60,55) matched(59,56) matched(58,57) matched(57,58) matched(56,59) matched(55,60) matched(54,53) matched(4,1)
Optimization: 724
Answer: 16
matched(8,2) matched(6,3) matched(1,4) matched(7,5) matched(3,6) matched(5,7) matched(2,8) matched(11,10) matched(10,11) matched(9,12) matched(12,9) matched(19,14) matched(20,15) matched(13,16) matched(18,17) matched(17,18) matched(14,19) matched(15,20) matched(16,13) matched(27,22) matched(26,23) matched(21,24) matched(28,25) matched(23,26) matched(22,27) matched(25,28) matched(24,21) matched(31,30) matched(30,31) matched(29,32) matched(32,29) matched(33,34) matched(38,35) matched(39,36) matched(40,37) matched(35,38) matched(36,39) matched(37,40) matched(34,33) matched(46,42) matched(41,43) matched(48,44) matched(47,45) matched(42,46) matched(45,47) matched(44,48) matched(43,41) matched(51,50) matched(50,51) matched(49,52) matched(52,49) matched(53,54) matched(60,55) matched(59,56) matched(58,57) matched(57,58) matched(56,59) matched(55,60) matched(54,53) matched(4,1)
Optimization: 718
Answer: 17
matched(8,2) matched(6,3) matched(1,4) matched(7,5) matched(3,6) matched(5,7) matched(2,8) matched(11,10) matched(10,11) matched(9,12) matched(12,9) matched(13,14) matched(18,15) matched(19,16) matched(20,17) matched(15,18) matched(16,19) matched(17,20) matched(14,13) matched(26,22) matched(21,23) matched(28,24) matched(27,25) matched(22,26) matched(25,27) matched(24,28) matched(23,21) matched(31,30) matched(30,31) matched(29,32) matched(32,29) matched(33,34) matched(38,35) matched(39,36) matched(40,37) matched(35,38) matched(36,39) matched(37,40) matched(34,33) matched(46,42) matched(41,43) matched(48,44) matched(47,45) matched(42,46) matched(45,47) matched(44,48) matched(43,41) matched(51,50) matched(50,51) matched(49,52) matched(52,49) matched(59,54) matched(60,55) matched(53,56) matched(58,57) matched(57,58) matched(54,59) matched(55,60) matched(56,53) matched(4,1)
Optimization: 715
Answer: 18
matched(8,2) matched(6,3) matched(1,4) matched(7,5) matched(3,6) matched(5,7) matched(2,8) matched(11,10) matched(10,11) matched(9,12) matched(12,9) matched(13,14) matched(18,15) matched(19,16) matched(20,17) matched(15,18) matched(16,19) matched(17,20) matched(14,13) matched(27,22) matched(28,23) matched(21,24) matched(26,25) matched(25,26) matched(22,27) matched(23,28) matched(24,21) matched(31,30) matched(30,31) matched(29,32) matched(32,29) matched(33,34) matched(38,35) matched(39,36) matched(40,37) matched(35,38) matched(36,39) matched(37,40) matched(34,33) matched(46,42) matched(41,43) matched(48,44) matched(47,45) matched(42,46) matched(45,47) matched(44,48) matched(43,41) matched(51,50) matched(50,51) matched(49,52) matched(52,49) matched(59,54) matched(60,55) matched(53,56) matched(58,57) matched(57,58) matched(54,59) matched(55,60) matched(56,53) matched(4,1)
Optimization: 710
Answer: 19
matched(8,2) matched(6,3) matched(1,4) matched(7,5) matched(3,6) matched(5,7) matched(2,8) matched(11,10) matched(10,11) matched(9,12) matched(12,9) matched(13,14) matched(20,15) matched(19,16) matched(18,17) matched(17,18) matched(16,19) matched(15,20) matched(14,13) matched(27,22) matched(28,23) matched(21,24) matched(26,25) matched(25,26) matched(22,27) matched(23,28) matched(24,21) matched(31,30) matched(30,31) matched(29,32) matched(32,29) matched(33,34) matched(38,35) matched(39,36) matched(40,37) matched(35,38) matched(36,39) matched(37,40) matched(34,33) matched(46,42) matched(41,43) matched(48,44) matched(47,45) matched(42,46) matched(45,47) matched(44,48) matched(43,41) matched(51,50) matched(50,51) matched(49,52) matched(52,49) matched(59,54) matched(60,55) matched(53,56) matched(58,57) matched(57,58) matched(54,59) matched(55,60) matched(56,53) matched(4,1)
Optimization: 708
Answer: 20
matched(8,2) matched(6,3) matched(1,4) matched(7,5) matched(3,6) matched(5,7) matched(2,8) matched(11,10) matched(10,11) matched(9,12) matched(12,9) matched(19,14) matched(20,15) matched(13,16) matched(18,17) matched(17,18) matched(14,19) matched(15,20) matched(16,13) matched(27,22) matched(26,23) matched(21,24) matched(28,25) matched(23,26) matched(22,27) matched(25,28) matched(24,21) matched(31,30) matched(30,31) matched(29,32) matched(32,29) matched(33,34) matched(38,35) matched(39,36) matched(40,37) matched(35,38) matched(36,39) matched(37,40) matched(34,33) matched(46,42) matched(41,43) matched(48,44) matched(47,45) matched(42,46) matched(45,47) matched(44,48) matched(43,41) matched(51,50) matched(50,51) matched(49,52) matched(52,49) matched(59,54) matched(60,55) matched(53,56) matched(58,57) matched(57,58) matched(54,59) matched(55,60) matched(56,53) matched(4,1)
Optimization: 699
Answer: 21
matched(8,2) matched(6,3) matched(1,4) matched(7,5) matched(3,6) matched(5,7) matched(2,8) matched(11,10) matched(10,11) matched(9,12) matched(12,9) matched(20,14) matched(18,15) matched(13,16) matched(19,17) matched(15,18) matched(17,19) matched(14,20) matched(16,13) matched(27,22) matched(26,23) matched(21,24) matched(28,25) matched(23,26) matched(22,27) matched(25,28) matched(24,21) matched(31,30) matched(30,31) matched(29,32) matched(32,29) matched(40,34) matched(38,35) matched(33,36) matched(39,37) matched(35,38) matched(37,39) matched(34,40) matched(36,33) matched(46,42) matched(41,43) matched(48,44) matched(47,45) matched(42,46) matched(45,47) matched(44,48) matched(43,41) matched(51,50) matched(50,51) matched(49,52) matched(52,49) matched(59,54) matched(60,55) matched(53,56) matched(58,57) matched(57,58) matched(54,59) matched(55,60) matched(56,53) matched(4,1)
Optimization: 697
Answer: 22
matched(8,2) matched(6,3) matched(1,4) matched(7,5) matched(3,6) matched(5,7) matched(2,8) matched(11,10) matched(10,11) matched(9,12) matched(12,9) matched(13,14) matched(20,15) matched(19,16) matched(18,17) matched(17,18) matched(16,19) matched(15,20) matched(14,13) matched(27,22) matched(26,23) matched(21,24) matched(28,25) matched(23,26) matched(22,27) matched(25,28) matched(24,21) matched(31,30) matched(30,31) matched(29,32) matched(32,29) matched(40,34) matched(38,35) matched(33,36) matched(39,37) matched(35,38) matched(37,39) matched(34,40) matched(36,33) matched(46,42) matched(41,43) matched(48,44) matched(47,45) matched(42,46) matched(45,47) matched(44,48) matched(43,41) matched(51,50) matched(50,51) matched(49,52) matched(52,49) matched(59,54) matched(60,55) matched(53,56) matched(58,57) matched(57,58) matched(54,59) matched(55,60) matched(56,53) matched(4,1)
Optimization: 694
Answer: 23
matched(8,2) matched(6,3) matched(1,4) matched(7,5) matched(3,6) matched(5,7) matched(2,8) matched(11,10) matched(10,11) matched(9,12) matched(12,9) matched(19,14) matched(20,15) matched(13,16) matched(18,17) matched(17,18) matched(14,19) matched(15,20) matched(16,13) matched(27,22) matched(26,23) matched(21,24) matched(28,25) matched(23,26) matched(22,27) matched(25,28) matched(24,21) matched(31,30) matched(30,31) matched(29,32) matched(32,29) matched(40,34) matched(38,35) matched(33,36) matched(39,37) matched(35,38) matched(37,39) matched(34,40) matched(36,33) matched(46,42) matched(41,43) matched(48,44) matched(47,45) matched(42,46) matched(45,47) matched(44,48) matched(43,41) matched(51,50) matched(50,51) matched(49,52) matched(52,49) matched(59,54) matched(60,55) matched(53,56) matched(58,57) matched(57,58) matched(54,59) matched(55,60) matched(56,53) matched(4,1)
Optimization: 691
Answer: 24
matched(8,2) matched(6,3) matched(1,4) matched(7,5) matched(3,6) matched(5,7) matched(2,8) matched(11,10) matched(10,11) matched(9,12) matched(12,9) matched(13,14) matched(20,15) matched(19,16) matched(18,17) matched(17,18) matched(16,19) matched(15,20) matched(14,13) matched(27,22) matched(26,23) matched(21,24) matched(28,25) matched(23,26) matched(22,27) matched(25,28) matched(24,21) matched(32,30) matched(29,31) matched(30,32) matched(31,29) matched(40,34) matched(38,35) matched(33,36) matched(39,37) matched(35,38) matched(37,39) matched(34,40) matched(36,33) matched(46,42) matched(41,43) matched(48,44) matched(47,45) matched(42,46) matched(45,47) matched(44,48) matched(43,41) matched(51,50) matched(50,51) matched(49,52) matched(52,49) matched(59,54) matched(58,55) matched(53,56) matched(60,57) matched(55,58) matched(54,59) matched(57,60) matched(56,53) matched(4,1)
Optimization: 690
Answer: 25
matched(8,2) matched(6,3) matched(1,4) matched(7,5) matched(3,6) matched(5,7) matched(2,8) matched(11,10) matched(10,11) matched(9,12) matched(12,9) matched(19,14) matched(20,15) matched(13,16) matched(18,17) matched(17,18) matched(14,19) matched(15,20) matched(16,13) matched(27,22) matched(26,23) matched(21,24) matched(28,25) matched(23,26) matched(22,27) matched(25,28) matched(24,21) matched(32,30) matched(29,31) matched(30,32) matched(31,29) matched(40,34) matched(38,35) matched(33,36) matched(39,37) matched(35,38) matched(37,39) matched(34,40) matched(36,33) matched(46,42) matched(41,43) matched(48,44) matched(47,45) matched(42,46) matched(45,47) matched(44,48) matched(43,41) matched(51,50) matched(50,51) matched(49,52) matched(52,49) matched(59,54) matched(58,55) matched(53,56) matched(60,57) matched(55,58) matched(54,59) matched(57,60) matched(56,53) matched(4,1)
Optimization: 687
Answer: 26
matched(8,2) matched(6,3) matched(1,4) matched(7,5) matched(3,6) matched(5,7) matched(2,8) matched(11,10) matched(10,11) matched(9,12) matched(12,9) matched(20,14) matched(18,15) matched(13,16) matched(19,17) matched(15,18) matched(17,19) matched(14,20) matched(16,13) matched(27,22) matched(26,23) matched(21,24) matched(28,25) matched(23,26) matched(22,27) matched(25,28) matched(24,21) matched(31,30) matched(30,31) matched(29,32) matched(32,29) matched(33,34) matched(38,35) matched(39,36) matched(40,37) matched(35,38) matched(36,39) matched(37,40) matched(34,33) matched(46,42) matched(41,43) matched(48,44) matched(47,45) matched(42,46) matched(45,47) matched(44,48) matched(43,41) matched(51,50) matched(50,51) matched(49,52) matched(52,49) matched(58,54) matched(53,55) matched(60,56) matched(59,57) matched(54,58) matched(57,59) matched(56,60) matched(55,53) matched(4,1)
Optimization: 685
Answer: 27
matched(8,2) matched(6,3) matched(1,4) matched(7,5) matched(3,6) matched(5,7) matched(2,8) matched(11,10) matched(10,11) matched(9,12) matched(12,9) matched(13,14) matched(20,15) matched(19,16) matched(18,17) matched(17,18) matched(16,19) matched(15,20) matched(14,13) matched(27,22) matched(26,23) matched(21,24) matched(28,25) matched(23,26) matched(22,27) matched(25,28) matched(24,21) matched(31,30) matched(30,31) matched(29,32) matched(32,29) matched(33,34) matched(40,35) matched(39,36) matched(38,37) matched(37,38) matched(36,39) matched(35,40) matched(34,33) matched(46,42) matched(41,43) matched(48,44) matched(47,45) matched(42,46) matched(45,47) matched(44,48) matched(43,41) matched(51,50) matched(50,51) matched(49,52) matched(52,49) matched(58,54) matched(53,55) matched(60,56) matched(59,57) matched(54,58) matched(57,59) matched(56,60) matched(55,53) matched(4,1)
Optimization: 684
Answer: 28
matched(8,2) matched(6,3) matched(1,4) matched(7,5) matched(3,6) matched(5,7) matched(2,8) matched(11,10) matched(10,11) matched(9,12) matched(12,9) matched(19,14) matched(20,15) matched(13,16) matched(18,17) matched(17,18) matched(14,19) matched(15,20) matched(16,13) matched(27,22) matched(26,23) matched(21,24) matched(28,25) matched(23,26) matched(22,27) matched(25,28) matched(24,21) matched(31,30) matched(30,31) matched(29,32) matched(32,29) matched(33,34) matched(40,35) matched(39,36) matched(38,37) matched(37,38) matched(36,39) matched(35,40) matched(34,33) matched(46,42) matched(41,43) matched(48,44) matched(47,45) matched(42,46) matched(45,47) matched(44,48) matched(43,41) matched(51,50) matched(50,51) matched(49,52) matched(52,49) matched(58,54) matched(53,55) matched(60,56) matched(59,57) matched(54,58) matched(57,59) matched(56,60) matched(55,53) matched(4,1)
Optimization: 681
Answer: 29
matched(8,2) matched(6,3) matched(1,4) matched(7,5) matched(3,6) matched(5,7) matched(2,8) matched(11,10) matched(10,11) matched(9,12) matched(12,9) matched(19,14) matched(20,15) matched(13,16) matched(18,17) matched(17,18) matched(14,19) matched(15,20) matched(16,13) matched(27,22) matched(26,23) matched(21,24) matched(28,25) matched(23,26) matched(22,27) matched(25,28) matched(24,21) matched(31,30) matched(30,31) matched(29,32) matched(32,29) matched(33,34) matched(38,35) matched(39,36) matched(40,37) matched(35,38) matched(36,39) matched(37,40) matched(34,33) matched(46,42) matched(41,43) matched(48,44) matched(47,45) matched(42,46) matched(45,47) matched(44,48) matched(43,41) matched(51,50) matched(50,51) matched(49,52) matched(52,49) matched(58,54) matched(53,55) matched(60,56) matched(59,57) matched(54,58) matched(57,59) matched(56,60) matched(55,53) matched(4,1)
Optimization: 679
Answer: 30
matched(8,2) matched(6,3) matched(1,4) matched(7,5) matched(3,6) matched(5,7) matched(2,8) matched(11,10) matched(10,11) matched(9,12) matched(12,9) matched(13,14) matched(18,15) matched(19,16) matched(20,17) matched(15,18) matched(16,19) matched(17,20) matched(14,13) matched(27,22) matched(26,23) matched(21,24) matched(28,25) matched(23,26) matched(22,27) matched(25,28) matched(24,21) matched(31,30) matched(30,31) matched(29,32) matched(32,29) matched(40,34) matched(38,35) matched(33,36) matched(39,37) matched(35,38) matched(37,39) matched(34,40) matched(36,33) matched(46,42) matched(41,43) matched(48,44) matched(47,45) matched(42,46) matched(45,47) matched(44,48) matched(43,41) matched(51,50) matched(50,51) matched(49,52) matched(52,49) matched(58,54) matched(53,55) matched(60,56) matched(59,57) matched(54,58) matched(57,59) matched(56,60) matched(55,53) matched(4,1)
Optimization: 676
Answer: 31
matched(8,2) matched(6,3) matched(1,4) matched(7,5) matched(3,6) matched(5,7) matched(2,8) matched(11,10) matched(10,11) matched(9,12) matched(12,9) matched(19,14) matched(18,15) matched(13,16) matched(20,17) matched(15,18) matched(14,19) matched(17,20) matched(16,13) matched(27,22) matched(26,23) matched(21,24) matched(28,25) matched(23,26) matched(22,27) matched(25,28) matched(24,21) matched(31,30) matched(30,31) matched(29,32) matched(32,29) matched(40,34) matched(38,35) matched(33,36) matched(39,37) matched(35,38) matched(37,39) matched(34,40) matched(36,33) matched(46,42) matched(41,43) matched(48,44) matched(47,45) matched(42,46) matched(45,47) matched(44,48) matched(43,41) matched(51,50) matched(50,51) matched(49,52) matched(52,49) matched(58,54) matched(53,55) matched(60,56) matched(59,57) matched(54,58) matched(57,59) matched(56,60) matched(55,53) matched(4,1)
Optimization: 673
Answer: 32
matched(8,2) matched(6,3) matched(1,4) matched(7,5) matched(3,6) matched(5,7) matched(2,8) matched(11,10) matched(10,11) matched(9,12) matched(12,9) matched(19,14) matched(20,15) matched(13,16) matched(18,17) matched(17,18) matched(14,19) matched(15,20) matched(16,13) matched(27,22) matched(26,23) matched(21,24) matched(28,25) matched(23,26) matched(22,27) matched(25,28) matched(24,21) matched(31,30) matched(30,31) matched(29,32) matched(32,29) matched(40,34) matched(38,35) matched(33,36) matched(39,37) matched(35,38) matched(37,39) matched(34,40) matched(36,33) matched(46,42) matched(41,43) matched(48,44) matched(47,45) matched(42,46) matched(45,47) matched(44,48) matched(43,41) matched(51,50) matched(50,51) matched(49,52) matched(52,49) matched(58,54) matched(53,55) matched(60,56) matched(59,57) matched(54,58) matched(57,59) matched(56,60) matched(55,53) matched(4,1)
Optimization: 671
OPTIMUM FOUND

Models       : 32
  Optimum    : yes
Optimization : 671
Calls        : 1
Time         : 12.024s (Solving: 4.62s 1st Model: 0.00s Unsat: 1.39s)
CPU Time     : 11.999s
